33D32945 STP File, STP Format Version 1.0

SECTION Comment
Name    "i080-242"
Creator "Cees Duin"
Remark  "Incidence graph"
END

SECTION Graph
Nodes 80
Edges 632
E 1 8 304
E 1 26 211
E 1 29 190
E 1 30 197
E 1 31 205
E 1 35 202
E 1 38 202
E 1 45 214
E 1 53 202
E 1 56 196
E 1 69 199
E 1 72 205
E 1 75 193
E 1 77 197
E 2 6 297
E 2 17 196
E 2 21 196
E 2 24 197
E 2 28 197
E 2 32 198
E 2 38 201
E 2 42 205
E 2 49 199
E 2 56 206
E 2 64 200
E 2 76 204
E 2 78 208
E 3 5 302
E 3 13 300
E 3 20 198
E 3 21 199
E 3 22 200
E 3 24 196
E 3 30 191
E 3 42 195
E 3 45 199
E 3 46 195
E 3 58 201
E 3 60 205
E 3 61 205
E 3 62 202
E 3 64 203
E 3 66 200
E 3 70 203
E 4 10 295
E 4 14 305
E 4 18 197
E 4 26 200
E 4 29 203
E 4 40 205
E 4 48 204
E 4 53 206
E 4 71 208
E 4 72 196
E 4 78 188
E 5 8 301
E 5 12 304
E 5 21 208
E 5 39 202
E 5 44 197
E 5 45 203
E 5 53 205
E 5 55 201
E 5 63 200
E 5 64 199
E 5 68 207
E 5 72 198
E 5 73 191
E 6 16 301
E 6 27 198
E 6 30 208
E 6 37 203
E 6 38 193
E 6 39 197
E 6 42 195
E 6 50 202
E 6 60 199
E 6 62 201
E 6 66 198
E 6 72 204
E 6 78 198
E 7 10 307
E 7 14 301
E 7 15 292
E 7 18 197
E 7 21 200
E 7 26 199
E 7 28 197
E 7 32 204
E 7 34 206
E 7 36 201
E 7 52 199
E 7 54 204
E 7 57 196
E 7 58 198
E 7 59 197
E 7 66 205
E 7 70 207
E 7 76 193
E 8 14 302
E 8 24 196
E 8 29 190
E 8 32 199
E 8 34 203
E 8 44 202
E 8 47 207
E 8 62 196
E 8 64 203
E 8 67 190
E 8 68 199
E 8 72 200
E 9 10 301
E 9 14 291
E 9 16 299
E 9 20 200
E 9 21 194
E 9 25 196
E 9 32 206
E 9 39 197
E 9 41 206
E 9 45 202
E 9 46 199
E 9 48 189
E 9 49 200
E 9 59 202
E 9 61 195
E 9 79 188
E 9 80 197
E 10 13 305
E 10 17 201
E 10 33 202
E 10 35 202
E 10 36 197
E 10 39 196
E 10 50 206
E 10 60 204
E 10 63 199
E 10 75 208
E 10 79 199
E 11 20 195
E 11 21 200
E 11 27 197
E 11 33 199
E 11 37 204
E 11 42 191
E 11 59 204
E 11 67 206
E 11 68 196
E 11 75 199
E 11 77 211
E 11 79 211
E 12 16 310
E 12 18 200
E 12 26 198
E 12 37 205
E 12 39 197
E 12 41 200
E 12 42 195
E 12 49 201
E 12 50 212
E 12 54 205
E 12 56 196
E 12 61 206
E 12 63 204
E 12 74 202
E 12 77 195
E 13 14 300
E 13 15 309
E 13 18 194
E 13 21 194
E 13 25 198
E 13 39 195
E 13 43 205
E 13 46 197
E 13 47 203
E 13 48 201
E 13 53 199
E 13 64 200
E 13 73 201
E 14 16 301
E 14 27 197
E 14 34 206
E 14 37 193
E 14 42 198
E 14 43 204
E 14 45 197
E 14 47 193
E 14 51 202
E 14 60 201
E 14 63 197
E 14 72 197
E 14 73 209
E 14 76 200
E 14 80 201
E 15 16 296
E 15 19 198
E 15 32 200
E 15 34 196
E 15 47 190
E 15 48 195
E 15 50 202
E 15 52 202
E 15 53 214
E 15 63 211
E 15 66 201
E 15 70 201
E 15 74 196
E 16 18 199
E 16 21 203
E 16 28 203
E 16 32 195
E 16 40 201
E 16 42 194
E 16 45 195
E 16 48 207
E 16 49 192
E 16 54 198
E 16 55 202
E 16 59 197
E 16 64 200
E 16 65 189
E 16 66 198
E 16 67 201
E 16 69 186
E 16 72 201
E 16 73 203
E 17 20 94
E 17 22 94
E 17 34 101
E 17 54 100
E 17 57 101
E 17 61 90
E 17 68 107
E 17 72 97
E 17 75 98
E 17 80 97
E 18 19 95
E 18 25 94
E 18 26 97
E 18 27 94
E 18 29 101
E 18 38 100
E 18 41 99
E 18 47 98
E 18 51 102
E 18 58 96
E 18 60 106
E 18 62 102
E 18 64 102
E 18 70 107
E 18 72 106
E 18 74 96
E 18 78 97
E 18 80 98
E 19 23 91
E 19 31 108
E 19 35 93
E 19 46 91
E 19 59 97
E 19 65 103
E 19 68 87
E 19 76 94
E 19 77 95
E 20 26 96
E 20 27 102
E 20 30 100
E 20 31 97
E 20 41 103
E 20 44 99
E 20 52 98
E 20 55 105
E 20 59 96
E 20 65 100
E 20 80 99
E 21 37 104
E 21 44 104
E 21 47 102
E 21 51 100
E 21 55 97
E 21 56 102
E 21 58 109
E 21 71 102
E 21 75 90
E 21 76 95
E 21 79 95
E 22 27 103
E 22 34 95
E 22 36 103
E 22 43 97
E 22 44 94
E 22 45 100
E 22 48 107
E 22 49 106
E 22 50 98
E 22 51 100
E 22 65 96
E 22 66 93
E 22 74 95
E 22 76 96
E 22 77 108
E 23 27 98
E 23 29 103
E 23 34 88
E 23 48 98
E 23 49 95
E 23 54 103
E 23 58 102
E 23 59 98
E 23 62 92
E 23 66 107
E 23 76 99
E 24 26 96
E 24 36 92
E 24 38 94
E 24 40 104
E 24 45 100
E 24 49 96
E 24 50 93
E 24 52 95
E 24 55 105
E 24 60 92
E 24 63 105
E 24 72 102
E 24 75 99
E 24 79 100
E 25 28 100
E 25 31 100
E 25 40 100
E 25 45 98
E 25 48 100
E 25 52 97
E 25 55 94
E 25 61 106
E 25 66 93
E 25 67 94
E 25 73 108
E 25 74 92
E 25 75 106
E 25 77 97
E 26 28 95
E 26 34 98
E 26 35 98
E 26 36 98
E 26 38 97
E 26 44 102
E 26 54 101
E 26 55 103
E 26 60 99
E 26 69 99
E 26 70 99
E 26 73 100
E 27 38 99
E 27 44 90
E 27 50 105
E 27 53 97
E 27 60 98
E 27 63 91
E 27 65 107
E 27 70 96
E 27 74 105
E 27 78 97
E 28 40 96
E 28 42 96
E 28 56 105
E 28 63 103
E 28 69 99
E 28 72 97
E 29 44 96
E 29 45 106
E 29 52 90
E 29 53 108
E 29 64 95
E 29 71 99
E 29 77 94
E 29 79 97
E 30 32 92
E 30 34 107
E 30 41 107
E 30 44 93
E 30 47 96
E 30 48 104
E 30 49 93
E 30 50 94
E 30 56 97
E 30 58 96
E 30 66 99
E 30 69 104
E 30 74 92
E 31 32 104
E 31 36 109
E 31 39 106
E 31 50 90
E 31 58 99
E 31 62 93
E 31 73 102
E 31 77 96
E 31 78 92
E 32 34 99
E 32 45 95
E 32 51 104
E 32 53 102
E 32 60 103
E 32 62 96
E 32 71 107
E 32 76 97
E 33 34 99
E 33 37 109
E 33 39 96
E 33 48 100
E 33 53 99
E 33 60 102
E 33 66 108
E 33 70 96
E 33 76 105
E 33 78 99
E 33 79 99
E 34 51 99
E 34 53 99
E 34 62 92
E 34 71 101
E 34 74 103
E 34 76 103
E 34 78 97
E 34 79 101
E 35 36 101
E 35 37 96
E 35 53 95
E 35 63 101
E 35 64 100
E 35 66 101
E 35 67 100
E 35 73 106
E 35 77 99
E 35 79 96
E 36 39 94
E 36 40 100
E 36 44 93
E 36 49 103
E 36 58 105
E 36 66 105
E 36 78 97
E 36 79 96
E 37 47 105
E 37 48 103
E 37 56 96
E 37 59 101
E 37 63 101
E 37 65 102
E 37 72 98
E 37 74 95
E 37 79 107
E 38 42 99
E 38 45 94
E 38 51 101
E 38 53 108
E 38 56 100
E 38 62 87
E 38 63 101
E 38 65 104
E 38 68 107
E 38 72 92
E 38 75 100
E 38 77 108
E 39 40 96
E 39 51 93
E 39 60 95
E 39 63 85
E 39 64 96
E 39 65 107
E 39 66 105
E 39 69 107
E 39 72 96
E 39 77 95
E 39 79 93
E 40 54 99
E 40 60 101
E 40 69 97
E 40 74 96
E 40 78 102
E 41 42 100
E 41 70 93
E 41 71 102
E 41 72 103
E 42 43 100
E 42 44 102
E 42 52 96
E 42 64 97
E 42 66 92
E 42 67 97
E 42 71 109
E 43 50 97
E 43 55 100
E 43 56 95
E 43 59 99
E 43 72 98
E 43 77 103
E 44 45 99
E 44 65 104
E 44 74 98
E 44 76 98
E 45 47 99
E 45 58 105
E 45 67 101
E 45 72 102
E 45 77 93
E 46 52 98
E 46 53 97
E 46 55 96
E 46 57 104
E 46 59 93
E 46 60 109
E 46 62 102
E 46 63 100
E 46 70 105
E 46 74 97
E 46 76 106
E 46 78 108
E 47 50 92
E 47 53 103
E 47 57 99
E 47 68 94
E 47 69 100
E 47 71 102
E 47 75 104
E 47 77 98
E 48 53 106
E 48 59 102
E 48 65 96
E 48 68 97
E 48 72 95
E 49 56 99
E 49 59 91
E 49 63 106
E 49 65 93
E 49 70 104
E 50 54 102
E 50 66 96
E 50 72 104
E 50 73 107
E 50 79 99
E 51 55 105
E 51 56 106
E 51 71 94
E 51 74 98
E 51 75 99
E 52 55 99
E 52 58 99
E 52 64 95
E 52 68 93
E 52 71 97
E 52 75 93
E 53 55 99
E 53 58 97
E 53 65 97
E 53 72 105
E 54 57 100
E 54 69 102
E 54 72 100
E 54 76 100
E 54 79 99
E 55 68 100
E 55 74 99
E 55 75 105
E 55 77 99
E 56 61 94
E 56 66 109
E 56 69 102
E 56 80 105
E 57 58 99
E 57 80 93
E 58 61 106
E 58 63 99
E 58 71 100
E 58 73 99
E 59 61 96
E 59 64 100
E 59 67 100
E 59 69 99
E 59 74 96
E 59 77 97
E 60 62 105
E 60 64 100
E 60 74 104
E 60 78 108
E 60 80 100
E 61 62 100
E 61 64 93
E 61 67 97
E 61 72 101
E 61 75 97
E 61 78 94
E 62 64 105
E 62 65 102
E 62 68 102
E 62 71 99
E 62 77 103
E 62 79 103
E 63 66 107
E 63 69 97
E 63 70 104
E 63 74 103
E 63 77 94
E 64 70 106
E 65 75 106
E 65 76 105
E 66 71 117
E 66 73 98
E 67 69 107
E 67 76 99
E 67 78 99
E 67 79 98
E 68 69 101
E 68 73 110
E 68 74 108
E 69 73 102
E 69 76 97
E 69 77 99
E 69 79 105
E 70 77 99
E 70 79 94
E 70 80 98
E 71 72 96
E 71 74 107
E 71 75 96
E 72 74 99
E 72 76 100
E 72 79 99
E 72 80 93
E 73 75 99
E 73 80 99
E 74 78 98
E 75 78 96
END

SECTION Terminals
Terminals 16
T 1
T 2
T 3
T 4
T 5
T 6
T 7
T 8
T 9
T 10
T 11
T 12
T 13
T 14
T 15
T 16
END

EOF
